p tw 75 97
0 1
0 11
0 51
0 3
1 8
1 33
1 14
2 3
2 15
2 27
2 16
3 12
3 16
3 17
4 5
4 11
4 65
5 9
5 72
6 7
7 47
7 17
8 15
8 24
8 58
9 10
9 67
11 31
12 51
13 14
13 41
13 73
16 17
17 23
17 37
17 66
17 40
18 19
18 34
19 23
19 60
20 21
20 48
20 58
20 49
21 49
21 27
22 23
23 50
24 25
24 55
24 51
24 71
25 27
25 50
25 34
26 27
26 52
27 46
28 29
28 65
29 59
29 42
29 45
30 31
30 61
31 32
31 64
32 57
34 48
34 41
35 36
37 38
37 60
37 66
38 39
38 63
39 40
39 67
40 62
41 42
43 44
45 46
45 68
46 73
49 50
49 56
51 60
51 58
53 54
54 60
55 74
56 57
62 63
62 70
69 70
69 71
